PROBLEM NAME: eil51_n11
KNAPSACK DATA TYPE: uncorrelated
DIMENSION: 11
NUMBER OF ITEMS: 50
CAPACITY OF KNAPSACK: 12583
MIN SPEED: 0.1
MAX SPEED: 1
RENTING RATIO: 23.48
EDGE_WEIGHT_TYPE: CEIL_2D
NODE_COORD_SECTION	(INDEX, X, Y):
1	37	52
2	31	62
3	31	32
4	52	41
5	13	13
6	62	42
7	42	57
8	37	69
9	32	22
10	56	37
11	30	40
ITEMS SECTION	(INDEX, PROFIT, WEIGHT, ASSIGNED NODE NUMBER):
1	979	192	2
2	928	539	2
3	915	880	2
4	861	131	2
5	848	454	2
6	814	834	8
7	813	354	8
8	792	68	8
9	790	280	8
10	789	762	8
11	786	810	7
12	773	586	7
13	753	519	7
14	752	4	7
15	748	144	7
16	714	698	6
17	710	872	6
18	682	337	6
19	652	486	6
20	647	883	6
21	605	134	10
22	585	101	10
23	575	685	10
24	568	646	10
25	560	764	10
26	559	50	4
27	488	354	4
28	477	851	4
29	393	17	4
30	386	893	4
31	374	13	9
32	373	110	9
33	364	139	9
34	363	773	9
35	355	415	9
36	353	938	5
37	313	593	5
38	264	58	5
39	245	675	5
40	242	954	5
41	234	355	3
42	229	211	3
43	225	696	3
44	217	532	3
45	155	432	3
46	112	139	11
47	111	936	11
48	106	29	11
49	70	246	11
50	50	498	11
